p cnf 19 11
a 1 2 0
e 3 4 5 0
a 6 7 0
e 8 0
a 9 10 0
e 11 12 13 14 0
a 15 16 0
e 17 0
a 18 19 0
-2 14 3 19 0
-18 17 10 0
-15 5 14 10 4 0
-11 -6 -13 0
2 1 -6 -11 3 0
8 19 14 0
14 -16 -4 0
-12 19 10 1 -5 0
3 9 -7 -19 0
15 1 -8 -7 0
-2 -9 5 12 6 0
